17	4
13	7	18	15	
0	0	0	0	0	3	2	3	4	
5	1	0	0	0	3	5	6	12	
1	0	0	9	0	3	9	10	11	
1	0	1	0	0	3	8	10	17	
10	0	0	9	0	3	13	14	17	
100	0	0	2	0	3	7	17	17	
50	3	0	0	0	3	9	10	13	
150	0	0	0	10	3	12	17	17	
175	0	0	5	0	3	15	16	17	
75	6	0	0	0	1	17	
250	0	7	0	0	3	15	17	17	
250	1	0	0	0	3	13	17	17	
2	0	0	3	0	2	17	17	
6	0	0	0	2	3	17	17	17	
1	0	0	0	5	3	17	17	17	
4	0	0	0	4	2	17	17	
0	0	0	0	0	0	
